8 56 8
0 0 1 10
1 0 2 15
2 0 3 12
3 0 4 20
4 0 5 18
5 0 6 14
6 0 7 16
7 1 0 10
8 1 2 8
9 1 3 7
10 1 4 12
11 1 5 9
12 1 6 11
13 1 7 13
14 2 0 15
15 2 1 8
16 2 3 9
17 2 4 10
18 2 5 12
19 2 6 14
20 2 7 11
21 3 0 12
22 3 1 7
23 3 2 9
24 3 4 8
25 3 5 10
26 3 6 13
27 3 7 15
28 4 0 20
29 4 1 12
30 4 2 10
31 4 3 8
32 4 5 9
33 4 6 11
34 4 7 14
35 5 0 18
36 5 1 9
37 5 2 12
38 5 3 10
39 5 4 9
40 5 6 7
41 5 7 13
42 6 0 14
43 6 1 11
44 6 2 14
45 6 3 13
46 6 4 11
47 6 5 7
48 6 7 12
49 7 0 16
50 7 1 13
51 7 2 11
52 7 3 15
53 7 4 14
54 7 5 13
55 7 6 12
0 5 8
1 10 7
2 15 12
3 20 9
4 25 11
5 30 14
6 35 10
7 40 13
